
;this file is automatically generated: Mon Oct 26 19:31:24 CST 2020

;declarations generated

(declare-fun oclExcludes ( Int Int) Bool)
(declare-fun Cardinality ( Int) Int)
(declare-fun obj_07dca879_efdc_42cf_b6b1_40c0f965e232 ( Int) Int)
(declare-fun class45_Class45BoolAttr0 ( Int) Bool)
(declare-fun oclSelect ( Int Bool) Int)
(declare-fun Enum0 ( Int) Int)
(declare-fun Enum1 ( Int) Int)
(declare-fun Enum2 ( Int) Int)
(declare-fun container_ ( Int) Int)
(declare-fun oclIncludes ( Int Int) Bool)
(declare-fun ObjAt ( Int Int) Int)
(declare-fun type_cf4c63c8_f651_4030_b344_4c17eaf081c5_Class45 ( Int) Bool)

;formula(s) generated
(assert (! (forall ((v Int)) (=> ( type_cf4c63c8_f651_4030_b344_4c17eaf081c5_Class45 v )  ( class45_Class45BoolAttr0 ( obj_07dca879_efdc_42cf_b6b1_40c0f965e232 v )  ) )):named l0))
(assert (exists ((o Int)) ( type_cf4c63c8_f651_4030_b344_4c17eaf081c5_Class45 ( obj_07dca879_efdc_42cf_b6b1_40c0f965e232 o )  ) ))

 ;end of formula 